(set-logic HORN)
(declare-datatypes ((Nat_1 0)) (((Z_0 ) (S_0 (unS_0 Nat_1)))))
(declare-fun diseqNat_0 (Nat_1 Nat_1) Bool)
(declare-fun unS_1 (Nat_1 Nat_1) Bool)
(declare-fun isZ_0 (Nat_1) Bool)
(declare-fun isS_0 (Nat_1) Bool)
(assert (forall ((x_171 Nat_1) (x_170 Nat_1))
	(=> (= x_171 (S_0 x_170))
	    (unS_1 x_170 x_171))))
(assert (isZ_0 Z_0))
(assert (forall ((x_172 Nat_1))
	(isS_0 (S_0 x_172))))
(assert (forall ((x_173 Nat_1))
	(diseqNat_0 Z_0 (S_0 x_173))))
(assert (forall ((x_174 Nat_1))
	(diseqNat_0 (S_0 x_174) Z_0)))
(assert (forall ((x_175 Nat_1) (x_176 Nat_1))
	(=> (diseqNat_0 x_175 x_176)
	    (diseqNat_0 (S_0 x_175) (S_0 x_176)))))
(declare-fun add_0 (Nat_1 Nat_1 Nat_1) Bool)
(declare-fun minus_0 (Nat_1 Nat_1 Nat_1) Bool)
(declare-fun le_0 (Nat_1 Nat_1) Bool)
(declare-fun ge_0 (Nat_1 Nat_1) Bool)
(declare-fun lt_0 (Nat_1 Nat_1) Bool)
(declare-fun gt_0 (Nat_1 Nat_1) Bool)
(declare-fun mult_0 (Nat_1 Nat_1 Nat_1) Bool)
(declare-fun div_0 (Nat_1 Nat_1 Nat_1) Bool)
(declare-fun mod_0 (Nat_1 Nat_1 Nat_1) Bool)
(assert (forall ((y_4 Nat_1))
	(add_0 y_4 Z_0 y_4)))
(assert (forall ((x_168 Nat_1) (y_4 Nat_1) (r_0 Nat_1))
	(=> (add_0 r_0 x_168 y_4)
	    (add_0 (S_0 r_0) (S_0 x_168) y_4))))
(assert (forall ((y_4 Nat_1))
	(minus_0 Z_0 Z_0 y_4)))
(assert (forall ((x_168 Nat_1) (y_4 Nat_1) (r_0 Nat_1))
	(=> (minus_0 r_0 x_168 y_4)
	    (minus_0 (S_0 r_0) (S_0 x_168) y_4))))
(assert (forall ((y_4 Nat_1))
	(le_0 Z_0 y_4)))
(assert (forall ((x_168 Nat_1) (y_4 Nat_1))
	(=> (le_0 x_168 y_4)
	    (le_0 (S_0 x_168) (S_0 y_4)))))
(assert (forall ((y_4 Nat_1))
	(ge_0 y_4 Z_0)))
(assert (forall ((x_168 Nat_1) (y_4 Nat_1))
	(=> (ge_0 x_168 y_4)
	    (ge_0 (S_0 x_168) (S_0 y_4)))))
(assert (forall ((y_4 Nat_1))
	(lt_0 Z_0 (S_0 y_4))))
(assert (forall ((x_168 Nat_1) (y_4 Nat_1))
	(=> (lt_0 x_168 y_4)
	    (lt_0 (S_0 x_168) (S_0 y_4)))))
(assert (forall ((y_4 Nat_1))
	(gt_0 (S_0 y_4) Z_0)))
(assert (forall ((x_168 Nat_1) (y_4 Nat_1))
	(=> (gt_0 x_168 y_4)
	    (gt_0 (S_0 x_168) (S_0 y_4)))))
(assert (forall ((y_4 Nat_1))
	(mult_0 Z_0 Z_0 y_4)))
(assert (forall ((x_168 Nat_1) (y_4 Nat_1) (r_0 Nat_1) (z_2 Nat_1))
	(=>	(and (mult_0 r_0 x_168 y_4)
			(add_0 z_2 r_0 y_4))
		(mult_0 z_2 (S_0 x_168) y_4))))
(assert (forall ((x_168 Nat_1) (y_4 Nat_1))
	(=> (lt_0 x_168 y_4)
	    (div_0 Z_0 x_168 y_4))))
(assert (forall ((x_168 Nat_1) (y_4 Nat_1) (r_0 Nat_1) (z_2 Nat_1))
	(=>	(and (ge_0 x_168 y_4)
			(minus_0 z_2 x_168 y_4)
			(div_0 r_0 z_2 y_4))
		(div_0 (S_0 r_0) x_168 y_4))))
(assert (forall ((x_168 Nat_1) (y_4 Nat_1))
	(=> (lt_0 x_168 y_4)
	    (mod_0 x_168 x_168 y_4))))
(assert (forall ((x_168 Nat_1) (y_4 Nat_1) (r_0 Nat_1) (z_2 Nat_1))
	(=>	(and (ge_0 x_168 y_4)
			(minus_0 z_2 x_168 y_4)
			(mod_0 r_0 z_2 y_4))
		(mod_0 r_0 x_168 y_4))))
(declare-datatypes ((Nat_0 0)) (((zero_0 ) (succ_0 (p_0 Nat_0)))))
(declare-fun diseqNat_1 (Nat_0 Nat_0) Bool)
(declare-fun p_1 (Nat_0 Nat_0) Bool)
(declare-fun iszero_0 (Nat_0) Bool)
(declare-fun issucc_0 (Nat_0) Bool)
(assert (forall ((x_179 Nat_0) (x_178 Nat_0))
	(=> (= x_179 (succ_0 x_178))
	    (p_1 x_178 x_179))))
(assert (iszero_0 zero_0))
(assert (forall ((x_180 Nat_0))
	(issucc_0 (succ_0 x_180))))
(assert (forall ((x_181 Nat_0))
	(diseqNat_1 zero_0 (succ_0 x_181))))
(assert (forall ((x_182 Nat_0))
	(diseqNat_1 (succ_0 x_182) zero_0)))
(assert (forall ((x_183 Nat_0) (x_184 Nat_0))
	(=> (diseqNat_1 x_183 x_184)
	    (diseqNat_1 (succ_0 x_183) (succ_0 x_184)))))
(declare-fun leq_0 (Bool Nat_0 Nat_0) Bool)
(assert (forall ((x_0 Nat_0) (y_0 Nat_0) (z_0 Nat_0) (x_1 Nat_0) (x_4 Bool) (x_5 Bool))
	(=>	(and (= x_4 x_5)
			(leq_0 x_5 z_0 x_1)
			(= x_0 (succ_0 z_0))
			(= y_0 (succ_0 x_1)))
		(leq_0 x_4 x_0 y_0))))
(assert (forall ((x_0 Nat_0) (y_0 Nat_0) (z_0 Nat_0) (x_6 Bool))
	(=>	(and (= x_6 false)
			(= x_0 (succ_0 z_0))
			(= y_0 zero_0))
		(leq_0 x_6 x_0 y_0))))
(assert (forall ((x_0 Nat_0) (y_0 Nat_0) (x_7 Bool))
	(=>	(and (= x_7 true)
			(= x_0 zero_0))
		(leq_0 x_7 x_0 y_0))))
(assert (forall ((x_2 Nat_0) (y_1 Nat_0) (z_1 Nat_0) (y_2 Nat_0) (x_3 Nat_0) (y_3 Nat_0) (x_8 Bool) (x_9 Bool) (x_10 Bool) (x_11 Bool) (x_12 Bool))
	(=>	(and (diseqNat_1 y_2 x_3)
			(= y_2 y_1)
			(= x_8 true)
			(= x_3 y_1)
			(= x_9 true)
			(= y_3 z_1)
			(= x_10 true)
			(= x_11 true)
			(= x_12 true)
			(leq_0 x_8 y_1 z_1)
			(leq_0 x_9 x_2 y_1)
			(leq_0 x_10 x_2 z_1)
			(leq_0 x_11 x_2 y_2)
			(leq_0 x_12 x_3 y_3))
		false)))
(assert (forall ((x_2 Nat_0) (y_1 Nat_0) (z_1 Nat_0) (y_2 Nat_0) (x_3 Nat_0) (y_3 Nat_0) (x_13 Bool) (x_14 Bool) (x_15 Bool) (x_16 Bool) (x_17 Bool))
	(=>	(and (diseqNat_1 x_2 x_3)
			(= y_2 y_1)
			(= x_13 true)
			(= x_3 y_1)
			(= x_14 true)
			(= y_3 z_1)
			(= x_15 true)
			(= x_16 false)
			(= x_17 true)
			(leq_0 x_13 y_1 z_1)
			(leq_0 x_14 x_2 y_1)
			(leq_0 x_15 x_2 z_1)
			(leq_0 x_16 x_2 y_2)
			(leq_0 x_17 x_3 y_3))
		false)))
(assert (forall ((x_2 Nat_0) (y_1 Nat_0) (z_1 Nat_0) (y_2 Nat_0) (x_3 Nat_0) (y_3 Nat_0) (x_18 Bool) (x_19 Bool) (x_20 Bool) (x_21 Bool) (x_22 Bool))
	(=>	(and (diseqNat_1 y_2 y_3)
			(= y_2 y_1)
			(= x_18 true)
			(= x_3 y_1)
			(= x_19 true)
			(= y_3 z_1)
			(= x_20 true)
			(= x_21 true)
			(= x_22 false)
			(leq_0 x_18 y_1 z_1)
			(leq_0 x_19 x_2 y_1)
			(leq_0 x_20 x_2 z_1)
			(leq_0 x_21 x_2 y_2)
			(leq_0 x_22 x_3 y_3))
		false)))
(assert (forall ((x_2 Nat_0) (y_1 Nat_0) (z_1 Nat_0) (y_2 Nat_0) (x_3 Nat_0) (y_3 Nat_0) (x_23 Bool) (x_24 Bool) (x_25 Bool) (x_26 Bool) (x_27 Bool))
	(=>	(and (diseqNat_1 x_2 y_3)
			(= y_2 y_1)
			(= x_23 true)
			(= x_3 y_1)
			(= x_24 true)
			(= y_3 z_1)
			(= x_25 true)
			(= x_26 false)
			(= x_27 false)
			(leq_0 x_23 y_1 z_1)
			(leq_0 x_24 x_2 y_1)
			(leq_0 x_25 x_2 z_1)
			(leq_0 x_26 x_2 y_2)
			(leq_0 x_27 x_3 y_3))
		false)))
(assert (forall ((x_2 Nat_0) (y_1 Nat_0) (z_1 Nat_0) (y_2 Nat_0) (x_3 Nat_0) (y_3 Nat_0) (x_28 Bool) (x_29 Bool) (x_30 Bool) (x_31 Bool) (x_32 Bool))
	(=>	(and (diseqNat_1 y_2 x_3)
			(= y_2 z_1)
			(= x_28 false)
			(= x_3 y_1)
			(= x_29 true)
			(= y_3 z_1)
			(= x_30 true)
			(= x_31 true)
			(= x_32 true)
			(leq_0 x_28 y_1 z_1)
			(leq_0 x_29 x_2 y_1)
			(leq_0 x_30 x_2 z_1)
			(leq_0 x_31 x_2 y_2)
			(leq_0 x_32 x_3 y_3))
		false)))
(assert (forall ((x_2 Nat_0) (y_1 Nat_0) (z_1 Nat_0) (y_2 Nat_0) (x_3 Nat_0) (y_3 Nat_0) (x_33 Bool) (x_34 Bool) (x_35 Bool) (x_36 Bool) (x_37 Bool))
	(=>	(and (diseqNat_1 x_2 x_3)
			(= y_2 z_1)
			(= x_33 false)
			(= x_3 y_1)
			(= x_34 true)
			(= y_3 z_1)
			(= x_35 true)
			(= x_36 false)
			(= x_37 true)
			(leq_0 x_33 y_1 z_1)
			(leq_0 x_34 x_2 y_1)
			(leq_0 x_35 x_2 z_1)
			(leq_0 x_36 x_2 y_2)
			(leq_0 x_37 x_3 y_3))
		false)))
(assert (forall ((x_2 Nat_0) (y_1 Nat_0) (z_1 Nat_0) (y_2 Nat_0) (x_3 Nat_0) (y_3 Nat_0) (x_38 Bool) (x_39 Bool) (x_40 Bool) (x_41 Bool) (x_42 Bool))
	(=>	(and (diseqNat_1 y_2 y_3)
			(= y_2 z_1)
			(= x_38 false)
			(= x_3 y_1)
			(= x_39 true)
			(= y_3 z_1)
			(= x_40 true)
			(= x_41 true)
			(= x_42 false)
			(leq_0 x_38 y_1 z_1)
			(leq_0 x_39 x_2 y_1)
			(leq_0 x_40 x_2 z_1)
			(leq_0 x_41 x_2 y_2)
			(leq_0 x_42 x_3 y_3))
		false)))
(assert (forall ((x_2 Nat_0) (y_1 Nat_0) (z_1 Nat_0) (y_2 Nat_0) (x_3 Nat_0) (y_3 Nat_0) (x_43 Bool) (x_44 Bool) (x_45 Bool) (x_46 Bool) (x_47 Bool))
	(=>	(and (diseqNat_1 x_2 y_3)
			(= y_2 z_1)
			(= x_43 false)
			(= x_3 y_1)
			(= x_44 true)
			(= y_3 z_1)
			(= x_45 true)
			(= x_46 false)
			(= x_47 false)
			(leq_0 x_43 y_1 z_1)
			(leq_0 x_44 x_2 y_1)
			(leq_0 x_45 x_2 z_1)
			(leq_0 x_46 x_2 y_2)
			(leq_0 x_47 x_3 y_3))
		false)))
(assert (forall ((x_2 Nat_0) (y_1 Nat_0) (z_1 Nat_0) (y_2 Nat_0) (x_3 Nat_0) (y_3 Nat_0) (x_48 Bool) (x_49 Bool) (x_50 Bool) (x_51 Bool) (x_52 Bool))
	(=>	(and (diseqNat_1 y_2 x_3)
			(= y_2 y_1)
			(= x_48 true)
			(= x_3 x_2)
			(= x_49 false)
			(= y_3 z_1)
			(= x_50 true)
			(= x_51 true)
			(= x_52 true)
			(leq_0 x_48 y_1 z_1)
			(leq_0 x_49 x_2 y_1)
			(leq_0 x_50 x_2 z_1)
			(leq_0 x_51 x_2 y_2)
			(leq_0 x_52 x_3 y_3))
		false)))
(assert (forall ((x_2 Nat_0) (y_1 Nat_0) (z_1 Nat_0) (y_2 Nat_0) (x_3 Nat_0) (y_3 Nat_0) (x_53 Bool) (x_54 Bool) (x_55 Bool) (x_56 Bool) (x_57 Bool))
	(=>	(and (diseqNat_1 x_2 x_3)
			(= y_2 y_1)
			(= x_53 true)
			(= x_3 x_2)
			(= x_54 false)
			(= y_3 z_1)
			(= x_55 true)
			(= x_56 false)
			(= x_57 true)
			(leq_0 x_53 y_1 z_1)
			(leq_0 x_54 x_2 y_1)
			(leq_0 x_55 x_2 z_1)
			(leq_0 x_56 x_2 y_2)
			(leq_0 x_57 x_3 y_3))
		false)))
(assert (forall ((x_2 Nat_0) (y_1 Nat_0) (z_1 Nat_0) (y_2 Nat_0) (x_3 Nat_0) (y_3 Nat_0) (x_58 Bool) (x_59 Bool) (x_60 Bool) (x_61 Bool) (x_62 Bool))
	(=>	(and (diseqNat_1 y_2 y_3)
			(= y_2 y_1)
			(= x_58 true)
			(= x_3 x_2)
			(= x_59 false)
			(= y_3 z_1)
			(= x_60 true)
			(= x_61 true)
			(= x_62 false)
			(leq_0 x_58 y_1 z_1)
			(leq_0 x_59 x_2 y_1)
			(leq_0 x_60 x_2 z_1)
			(leq_0 x_61 x_2 y_2)
			(leq_0 x_62 x_3 y_3))
		false)))
(assert (forall ((x_2 Nat_0) (y_1 Nat_0) (z_1 Nat_0) (y_2 Nat_0) (x_3 Nat_0) (y_3 Nat_0) (x_63 Bool) (x_64 Bool) (x_65 Bool) (x_66 Bool) (x_67 Bool))
	(=>	(and (diseqNat_1 x_2 y_3)
			(= y_2 y_1)
			(= x_63 true)
			(= x_3 x_2)
			(= x_64 false)
			(= y_3 z_1)
			(= x_65 true)
			(= x_66 false)
			(= x_67 false)
			(leq_0 x_63 y_1 z_1)
			(leq_0 x_64 x_2 y_1)
			(leq_0 x_65 x_2 z_1)
			(leq_0 x_66 x_2 y_2)
			(leq_0 x_67 x_3 y_3))
		false)))
(assert (forall ((x_2 Nat_0) (y_1 Nat_0) (z_1 Nat_0) (y_2 Nat_0) (x_3 Nat_0) (y_3 Nat_0) (x_68 Bool) (x_69 Bool) (x_70 Bool) (x_71 Bool) (x_72 Bool))
	(=>	(and (diseqNat_1 y_2 x_3)
			(= y_2 z_1)
			(= x_68 false)
			(= x_3 x_2)
			(= x_69 false)
			(= y_3 z_1)
			(= x_70 true)
			(= x_71 true)
			(= x_72 true)
			(leq_0 x_68 y_1 z_1)
			(leq_0 x_69 x_2 y_1)
			(leq_0 x_70 x_2 z_1)
			(leq_0 x_71 x_2 y_2)
			(leq_0 x_72 x_3 y_3))
		false)))
(assert (forall ((x_2 Nat_0) (y_1 Nat_0) (z_1 Nat_0) (y_2 Nat_0) (x_3 Nat_0) (y_3 Nat_0) (x_73 Bool) (x_74 Bool) (x_75 Bool) (x_76 Bool) (x_77 Bool))
	(=>	(and (diseqNat_1 x_2 x_3)
			(= y_2 z_1)
			(= x_73 false)
			(= x_3 x_2)
			(= x_74 false)
			(= y_3 z_1)
			(= x_75 true)
			(= x_76 false)
			(= x_77 true)
			(leq_0 x_73 y_1 z_1)
			(leq_0 x_74 x_2 y_1)
			(leq_0 x_75 x_2 z_1)
			(leq_0 x_76 x_2 y_2)
			(leq_0 x_77 x_3 y_3))
		false)))
(assert (forall ((x_2 Nat_0) (y_1 Nat_0) (z_1 Nat_0) (y_2 Nat_0) (x_3 Nat_0) (y_3 Nat_0) (x_78 Bool) (x_79 Bool) (x_80 Bool) (x_81 Bool) (x_82 Bool))
	(=>	(and (diseqNat_1 y_2 y_3)
			(= y_2 z_1)
			(= x_78 false)
			(= x_3 x_2)
			(= x_79 false)
			(= y_3 z_1)
			(= x_80 true)
			(= x_81 true)
			(= x_82 false)
			(leq_0 x_78 y_1 z_1)
			(leq_0 x_79 x_2 y_1)
			(leq_0 x_80 x_2 z_1)
			(leq_0 x_81 x_2 y_2)
			(leq_0 x_82 x_3 y_3))
		false)))
(assert (forall ((x_2 Nat_0) (y_1 Nat_0) (z_1 Nat_0) (y_2 Nat_0) (x_3 Nat_0) (y_3 Nat_0) (x_83 Bool) (x_84 Bool) (x_85 Bool) (x_86 Bool) (x_87 Bool))
	(=>	(and (diseqNat_1 x_2 y_3)
			(= y_2 z_1)
			(= x_83 false)
			(= x_3 x_2)
			(= x_84 false)
			(= y_3 z_1)
			(= x_85 true)
			(= x_86 false)
			(= x_87 false)
			(leq_0 x_83 y_1 z_1)
			(leq_0 x_84 x_2 y_1)
			(leq_0 x_85 x_2 z_1)
			(leq_0 x_86 x_2 y_2)
			(leq_0 x_87 x_3 y_3))
		false)))
(assert (forall ((x_2 Nat_0) (y_1 Nat_0) (z_1 Nat_0) (y_2 Nat_0) (x_3 Nat_0) (y_3 Nat_0) (x_88 Bool) (x_89 Bool) (x_90 Bool) (x_91 Bool) (x_92 Bool))
	(=>	(and (diseqNat_1 y_2 x_3)
			(= y_2 y_1)
			(= x_88 true)
			(= x_3 y_1)
			(= x_89 true)
			(= y_3 x_2)
			(= x_90 false)
			(= x_91 true)
			(= x_92 true)
			(leq_0 x_88 y_1 z_1)
			(leq_0 x_89 x_2 y_1)
			(leq_0 x_90 x_2 z_1)
			(leq_0 x_91 x_2 y_2)
			(leq_0 x_92 x_3 y_3))
		false)))
(assert (forall ((x_2 Nat_0) (y_1 Nat_0) (z_1 Nat_0) (y_2 Nat_0) (x_3 Nat_0) (y_3 Nat_0) (x_93 Bool) (x_94 Bool) (x_95 Bool) (x_96 Bool) (x_97 Bool))
	(=>	(and (diseqNat_1 x_2 x_3)
			(= y_2 y_1)
			(= x_93 true)
			(= x_3 y_1)
			(= x_94 true)
			(= y_3 x_2)
			(= x_95 false)
			(= x_96 false)
			(= x_97 true)
			(leq_0 x_93 y_1 z_1)
			(leq_0 x_94 x_2 y_1)
			(leq_0 x_95 x_2 z_1)
			(leq_0 x_96 x_2 y_2)
			(leq_0 x_97 x_3 y_3))
		false)))
(assert (forall ((x_2 Nat_0) (y_1 Nat_0) (z_1 Nat_0) (y_2 Nat_0) (x_3 Nat_0) (y_3 Nat_0) (x_98 Bool) (x_99 Bool) (x_100 Bool) (x_101 Bool) (x_102 Bool))
	(=>	(and (diseqNat_1 y_2 y_3)
			(= y_2 y_1)
			(= x_98 true)
			(= x_3 y_1)
			(= x_99 true)
			(= y_3 x_2)
			(= x_100 false)
			(= x_101 true)
			(= x_102 false)
			(leq_0 x_98 y_1 z_1)
			(leq_0 x_99 x_2 y_1)
			(leq_0 x_100 x_2 z_1)
			(leq_0 x_101 x_2 y_2)
			(leq_0 x_102 x_3 y_3))
		false)))
(assert (forall ((x_2 Nat_0) (y_1 Nat_0) (z_1 Nat_0) (y_2 Nat_0) (x_3 Nat_0) (y_3 Nat_0) (x_103 Bool) (x_104 Bool) (x_105 Bool) (x_106 Bool) (x_107 Bool))
	(=>	(and (diseqNat_1 x_2 y_3)
			(= y_2 y_1)
			(= x_103 true)
			(= x_3 y_1)
			(= x_104 true)
			(= y_3 x_2)
			(= x_105 false)
			(= x_106 false)
			(= x_107 false)
			(leq_0 x_103 y_1 z_1)
			(leq_0 x_104 x_2 y_1)
			(leq_0 x_105 x_2 z_1)
			(leq_0 x_106 x_2 y_2)
			(leq_0 x_107 x_3 y_3))
		false)))
(assert (forall ((x_2 Nat_0) (y_1 Nat_0) (z_1 Nat_0) (y_2 Nat_0) (x_3 Nat_0) (y_3 Nat_0) (x_108 Bool) (x_109 Bool) (x_110 Bool) (x_111 Bool) (x_112 Bool))
	(=>	(and (diseqNat_1 y_2 x_3)
			(= y_2 z_1)
			(= x_108 false)
			(= x_3 y_1)
			(= x_109 true)
			(= y_3 x_2)
			(= x_110 false)
			(= x_111 true)
			(= x_112 true)
			(leq_0 x_108 y_1 z_1)
			(leq_0 x_109 x_2 y_1)
			(leq_0 x_110 x_2 z_1)
			(leq_0 x_111 x_2 y_2)
			(leq_0 x_112 x_3 y_3))
		false)))
(assert (forall ((x_2 Nat_0) (y_1 Nat_0) (z_1 Nat_0) (y_2 Nat_0) (x_3 Nat_0) (y_3 Nat_0) (x_113 Bool) (x_114 Bool) (x_115 Bool) (x_116 Bool) (x_117 Bool))
	(=>	(and (diseqNat_1 x_2 x_3)
			(= y_2 z_1)
			(= x_113 false)
			(= x_3 y_1)
			(= x_114 true)
			(= y_3 x_2)
			(= x_115 false)
			(= x_116 false)
			(= x_117 true)
			(leq_0 x_113 y_1 z_1)
			(leq_0 x_114 x_2 y_1)
			(leq_0 x_115 x_2 z_1)
			(leq_0 x_116 x_2 y_2)
			(leq_0 x_117 x_3 y_3))
		false)))
(assert (forall ((x_2 Nat_0) (y_1 Nat_0) (z_1 Nat_0) (y_2 Nat_0) (x_3 Nat_0) (y_3 Nat_0) (x_118 Bool) (x_119 Bool) (x_120 Bool) (x_121 Bool) (x_122 Bool))
	(=>	(and (diseqNat_1 y_2 y_3)
			(= y_2 z_1)
			(= x_118 false)
			(= x_3 y_1)
			(= x_119 true)
			(= y_3 x_2)
			(= x_120 false)
			(= x_121 true)
			(= x_122 false)
			(leq_0 x_118 y_1 z_1)
			(leq_0 x_119 x_2 y_1)
			(leq_0 x_120 x_2 z_1)
			(leq_0 x_121 x_2 y_2)
			(leq_0 x_122 x_3 y_3))
		false)))
(assert (forall ((x_2 Nat_0) (y_1 Nat_0) (z_1 Nat_0) (y_2 Nat_0) (x_3 Nat_0) (y_3 Nat_0) (x_123 Bool) (x_124 Bool) (x_125 Bool) (x_126 Bool) (x_127 Bool))
	(=>	(and (diseqNat_1 x_2 y_3)
			(= y_2 z_1)
			(= x_123 false)
			(= x_3 y_1)
			(= x_124 true)
			(= y_3 x_2)
			(= x_125 false)
			(= x_126 false)
			(= x_127 false)
			(leq_0 x_123 y_1 z_1)
			(leq_0 x_124 x_2 y_1)
			(leq_0 x_125 x_2 z_1)
			(leq_0 x_126 x_2 y_2)
			(leq_0 x_127 x_3 y_3))
		false)))
(assert (forall ((x_2 Nat_0) (y_1 Nat_0) (z_1 Nat_0) (y_2 Nat_0) (x_3 Nat_0) (y_3 Nat_0) (x_128 Bool) (x_129 Bool) (x_130 Bool) (x_131 Bool) (x_132 Bool))
	(=>	(and (diseqNat_1 y_2 x_3)
			(= y_2 y_1)
			(= x_128 true)
			(= x_3 x_2)
			(= x_129 false)
			(= y_3 x_2)
			(= x_130 false)
			(= x_131 true)
			(= x_132 true)
			(leq_0 x_128 y_1 z_1)
			(leq_0 x_129 x_2 y_1)
			(leq_0 x_130 x_2 z_1)
			(leq_0 x_131 x_2 y_2)
			(leq_0 x_132 x_3 y_3))
		false)))
(assert (forall ((x_2 Nat_0) (y_1 Nat_0) (z_1 Nat_0) (y_2 Nat_0) (x_3 Nat_0) (y_3 Nat_0) (x_133 Bool) (x_134 Bool) (x_135 Bool) (x_136 Bool) (x_137 Bool))
	(=>	(and (diseqNat_1 x_2 x_3)
			(= y_2 y_1)
			(= x_133 true)
			(= x_3 x_2)
			(= x_134 false)
			(= y_3 x_2)
			(= x_135 false)
			(= x_136 false)
			(= x_137 true)
			(leq_0 x_133 y_1 z_1)
			(leq_0 x_134 x_2 y_1)
			(leq_0 x_135 x_2 z_1)
			(leq_0 x_136 x_2 y_2)
			(leq_0 x_137 x_3 y_3))
		false)))
(assert (forall ((x_2 Nat_0) (y_1 Nat_0) (z_1 Nat_0) (y_2 Nat_0) (x_3 Nat_0) (y_3 Nat_0) (x_138 Bool) (x_139 Bool) (x_140 Bool) (x_141 Bool) (x_142 Bool))
	(=>	(and (diseqNat_1 y_2 y_3)
			(= y_2 y_1)
			(= x_138 true)
			(= x_3 x_2)
			(= x_139 false)
			(= y_3 x_2)
			(= x_140 false)
			(= x_141 true)
			(= x_142 false)
			(leq_0 x_138 y_1 z_1)
			(leq_0 x_139 x_2 y_1)
			(leq_0 x_140 x_2 z_1)
			(leq_0 x_141 x_2 y_2)
			(leq_0 x_142 x_3 y_3))
		false)))
(assert (forall ((x_2 Nat_0) (y_1 Nat_0) (z_1 Nat_0) (y_2 Nat_0) (x_3 Nat_0) (y_3 Nat_0) (x_143 Bool) (x_144 Bool) (x_145 Bool) (x_146 Bool) (x_147 Bool))
	(=>	(and (diseqNat_1 x_2 y_3)
			(= y_2 y_1)
			(= x_143 true)
			(= x_3 x_2)
			(= x_144 false)
			(= y_3 x_2)
			(= x_145 false)
			(= x_146 false)
			(= x_147 false)
			(leq_0 x_143 y_1 z_1)
			(leq_0 x_144 x_2 y_1)
			(leq_0 x_145 x_2 z_1)
			(leq_0 x_146 x_2 y_2)
			(leq_0 x_147 x_3 y_3))
		false)))
(assert (forall ((x_2 Nat_0) (y_1 Nat_0) (z_1 Nat_0) (y_2 Nat_0) (x_3 Nat_0) (y_3 Nat_0) (x_148 Bool) (x_149 Bool) (x_150 Bool) (x_151 Bool) (x_152 Bool))
	(=>	(and (diseqNat_1 y_2 x_3)
			(= y_2 z_1)
			(= x_148 false)
			(= x_3 x_2)
			(= x_149 false)
			(= y_3 x_2)
			(= x_150 false)
			(= x_151 true)
			(= x_152 true)
			(leq_0 x_148 y_1 z_1)
			(leq_0 x_149 x_2 y_1)
			(leq_0 x_150 x_2 z_1)
			(leq_0 x_151 x_2 y_2)
			(leq_0 x_152 x_3 y_3))
		false)))
(assert (forall ((x_2 Nat_0) (y_1 Nat_0) (z_1 Nat_0) (y_2 Nat_0) (x_3 Nat_0) (y_3 Nat_0) (x_153 Bool) (x_154 Bool) (x_155 Bool) (x_156 Bool) (x_157 Bool))
	(=>	(and (diseqNat_1 x_2 x_3)
			(= y_2 z_1)
			(= x_153 false)
			(= x_3 x_2)
			(= x_154 false)
			(= y_3 x_2)
			(= x_155 false)
			(= x_156 false)
			(= x_157 true)
			(leq_0 x_153 y_1 z_1)
			(leq_0 x_154 x_2 y_1)
			(leq_0 x_155 x_2 z_1)
			(leq_0 x_156 x_2 y_2)
			(leq_0 x_157 x_3 y_3))
		false)))
(assert (forall ((x_2 Nat_0) (y_1 Nat_0) (z_1 Nat_0) (y_2 Nat_0) (x_3 Nat_0) (y_3 Nat_0) (x_158 Bool) (x_159 Bool) (x_160 Bool) (x_161 Bool) (x_162 Bool))
	(=>	(and (diseqNat_1 y_2 y_3)
			(= y_2 z_1)
			(= x_158 false)
			(= x_3 x_2)
			(= x_159 false)
			(= y_3 x_2)
			(= x_160 false)
			(= x_161 true)
			(= x_162 false)
			(leq_0 x_158 y_1 z_1)
			(leq_0 x_159 x_2 y_1)
			(leq_0 x_160 x_2 z_1)
			(leq_0 x_161 x_2 y_2)
			(leq_0 x_162 x_3 y_3))
		false)))
(assert (forall ((x_2 Nat_0) (y_1 Nat_0) (z_1 Nat_0) (y_2 Nat_0) (x_3 Nat_0) (y_3 Nat_0) (x_163 Bool) (x_164 Bool) (x_165 Bool) (x_166 Bool) (x_167 Bool))
	(=>	(and (diseqNat_1 x_2 y_3)
			(= y_2 z_1)
			(= x_163 false)
			(= x_3 x_2)
			(= x_164 false)
			(= y_3 x_2)
			(= x_165 false)
			(= x_166 false)
			(= x_167 false)
			(leq_0 x_163 y_1 z_1)
			(leq_0 x_164 x_2 y_1)
			(leq_0 x_165 x_2 z_1)
			(leq_0 x_166 x_2 y_2)
			(leq_0 x_167 x_3 y_3))
		false)))
(check-sat)
